
Gurobi 11.0.3 (linux64) logging started Mon Aug 25 15:03:38 2025

Set parameter LogFile to value "/home/yihong/Coding/OR_SUC/SUC_epstheta_results_bigM100000_thread4/case24_ieee_rts_theta0.1_epsilon0.1_gurobi_seed110000_num_gen100_N_WDR50_load_scaling_factor1_proposed_theta_T6quadra_cost_bc1.01.txt"
Set parameter TimeLimit to value 3600
Gurobi Optimizer version 11.0.3 build v11.0.3rc0 (linux64 - "Ubuntu 20.04.6 LTS")

CPU model: AMD EPYC 7532 32-Core Processor, instruction set [SSE2|AVX|AVX2]
Thread count: 64 physical cores, 128 logical processors, using up to 4 threads

Academic license 2399124 - for non-commercial use only - registered to yi___@ed.ac.uk
Optimize a model with 13966 rows, 7491 columns and 327526 nonzeros
Model fingerprint: 0xb3107dd8
Model has 600 quadratic constraints
Variable types: 6891 continuous, 600 integer (600 binary)
Coefficient statistics:
  Matrix range     [3e-04, 3e+03]
  QMatrix range    [2e-03, 8e-03]
  QLMatrix range   [1e-01, 6e+01]
  Objective range  [1e+00, 1e+00]
  Bounds range     [1e+00, 1e+00]
  RHS range        [9e-02, 9e+03]
Presolve removed 11532 rows and 3306 columns
Presolve time: 0.10s
Presolved: 2434 rows, 4185 columns, 14047 nonzeros
Presolved model has 600 quadratic constraint(s)
Variable types: 3585 continuous, 600 integer (600 binary)

Root relaxation: objective 7.826667e+03, 1923 iterations, 0.03 seconds (0.04 work units)

    Nodes    |    Current Node    |     Objective Bounds      |     Work
 Expl Unexpl |  Obj  Depth IntInf | Incumbent    BestBd   Gap | It/Node Time

     0     0 7826.66715    0    6          - 7826.66715      -     -    0s
     0     0 91499.4334    0  168          - 91499.4334      -     -    0s
     0     0 166449.077    0  108          - 166449.077      -     -    0s
     0     0 166452.143    0  102          - 166452.143      -     -    0s
     0     0 166502.930    0   90          - 166502.930      -     -    0s
     0     0 166503.499    0   90          - 166503.499      -     -    0s
     0     0 166503.812    0   90          - 166503.812      -     -    0s
     0     2 166503.812    0   90          - 166503.812      -     -    0s
H  130   149                    166511.02027 166505.500  0.00%   7.9    1s
*  130   149              54    166511.02027 166505.500  0.00%   8.0    1s

Cutting planes:
  Gomory: 55
  Implied bound: 165
  MIR: 31
  Flow cover: 69

Explored 158 nodes (6021 simplex iterations) in 1.25 seconds (1.10 work units)
Thread count was 4 (of 128 available processors)

Solution count 2: 166511 166511 

Optimal solution found (tolerance 1.00e-03)
Warning: max constraint violation (1.9768e-07) exceeds tolerance
Best objective 1.665110202670e+05, best bound 1.665054997369e+05, gap 0.0033%

Gurobi 11.0.3 (linux64) logging started Mon Aug 25 15:03:40 2025

Set parameter LogFile to value "/home/yihong/Coding/OR_SUC/SUC_epstheta_results_bigM100000_thread4/case24_ieee_rts_theta0.1_epsilon0.1_gurobi_seed110000_num_gen100_N_WDR50_load_scaling_factor1_proposed_theta_T6quadra_cost_bc1.01.txt"
Set parameter TimeLimit to value 3600
Gurobi Optimizer version 11.0.3 build v11.0.3rc0 (linux64 - "Ubuntu 20.04.6 LTS")

CPU model: AMD EPYC 7532 32-Core Processor, instruction set [SSE2|AVX|AVX2]
Thread count: 64 physical cores, 128 logical processors, using up to 4 threads

Academic license 2399124 - for non-commercial use only - registered to yi___@ed.ac.uk
Optimize a model with 13967 rows, 7492 columns and 329387 nonzeros
Model fingerprint: 0x215d2557
Model has 600 quadratic constraints
Variable types: 6892 continuous, 600 integer (600 binary)
Coefficient statistics:
  Matrix range     [3e-04, 3e+03]
  QMatrix range    [2e-03, 8e-03]
  QLMatrix range   [1e-01, 6e+01]
  Objective range  [1e+00, 1e+00]
  Bounds range     [1e-01, 1e+00]
  RHS range        [5e-01, 2e+05]
Presolve removed 10539 rows and 2813 columns
Presolve time: 0.11s
Presolved: 3428 rows, 4679 columns, 18959 nonzeros
Presolved model has 600 quadratic constraint(s)
Variable types: 4075 continuous, 604 integer (604 binary)

Root relaxation: objective 1.034526e+01, 4055 iterations, 0.07 seconds (0.08 work units)

    Nodes    |    Current Node    |     Objective Bounds      |     Work
 Expl Unexpl |  Obj  Depth IntInf | Incumbent    BestBd   Gap | It/Node Time

     0     0   10.34526    0    -          -   10.34526      -     -    0s
     0     0    1.35590    0    6          -    1.35590      -     -    0s
     0     0    0.17522    0   12          -    0.17522      -     -    0s
     0     0    0.17519    0   12          -    0.17519      -     -    0s
     0     0    0.17518    0   12          -    0.17518      -     -    0s
     0     0    0.17516    0   12          -    0.17516      -     -    0s
     0     2    0.17516    0   12          -    0.17516      -     -    1s
H   66    70                       0.1621186    0.17481  7.83%  24.9    2s
*   66    70              16       0.1621186    0.17481  7.83%  24.9    2s
H  113    73                       0.1662998    0.17481  5.12%  23.8    2s
*  113    73              15       0.1662998    0.17481  5.12%  24.1    2s
H  188    68                       0.1673310    0.17478  4.45%  22.6    2s
H  199    46                       0.1676619    0.17416  3.88%  22.1    2s
*  199    46              20       0.1676619    0.17416  3.88%  22.3    2s
H  208    46                       0.1691311    0.17398  2.87%  22.4    2s
*  208    46               7       0.1691311    0.17391  2.83%  22.4    2s
*  283     2               8       0.1691311    0.17089  1.04%  17.1    2s
*  310     0              44       0.1708868    0.17089  0.00%  15.6    3s

Cutting planes:
  Implied bound: 1
  Inf proof: 2
  RLT: 1

Explored 312 nodes (12039 simplex iterations) in 4.05 seconds (4.46 work units)
Thread count was 4 (of 128 available processors)

Solution count 6: 0.170887 0.169131 0.167662 ... 0.162119
No other solutions better than 0.170887

Optimal solution found (tolerance 1.00e-03)
Warning: max constraint violation (1.4246e-08) exceeds tolerance
Best objective 1.708868048431e-01, best bound 1.708868048431e-01, gap 0.0000%
